cases/matpower/case7_tplgy.m
ipopt
QCRM
[warn | PowerModels]: added zero cost function data for dclines
[warn | PowerModels]: active storage unit 1 is connected to inactive bus 6
[warn | PowerModels]: active branch 6 is connected to inactive bus 6
[warn | PowerModels]: active branch 7 is connected to inactive bus 6
[warn | PowerModels]: active dcline 2 is connected to inactive bus 6
[info | PowerModels]: removing 1 cost terms from generator 1: [100.0, 0.0]
[info | PowerModels]: removing 1 cost terms from generator 2: [100.0, 0.0]
[info | PowerModels]: removing 1 cost terms from generator 3: [1000.0, 0.0]
[info | PowerModels]: removing 3 cost terms from dcline 1: Float64[]
[info | PowerModels]: removing 3 cost terms from dcline 2: Float64[]
[info | PowerModels]: removing 3 cost terms from dcline 3: Float64[]

******************************************************************************
This program contains Ipopt, a library for large-scale nonlinear optimization.
 Ipopt is released as open source code under the Eclipse Public License (EPL).
         For more information visit http://projects.coin-or.org/Ipopt
******************************************************************************

This is Ipopt version 3.13.2, running with linear solver mumps.
NOTE: Other linear solvers might be more efficient (see Ipopt documentation).

Number of nonzeros in equality constraint Jacobian...:       75
Number of nonzeros in inequality constraint Jacobian.:      146
Number of nonzeros in Lagrangian Hessian.............:       22

Total number of variables............................:       50
                     variables with only lower bounds:        0
                variables with lower and upper bounds:       44
                     variables with only upper bounds:        0
Total number of equality constraints.................:       26
Total number of inequality constraints...............:       58
        inequality constraints with only lower bounds:       28
   inequality constraints with lower and upper bounds:        0
        inequality constraints with only upper bounds:       30

iter    objective    inf_pr   inf_du lg(mu)  ||d||  lg(rg) alpha_du alpha_pr  ls
   0  1.1999988e+01 1.11e+00 8.32e-01  -1.0 0.00e+00    -  0.00e+00 0.00e+00   0
   1  3.5809999e+02 8.85e-01 2.97e+01  -1.0 1.61e+00  -4.0 6.52e-03 2.03e-01h  1
   2  4.3510709e+02 8.36e-01 2.80e+01  -1.0 1.30e+00  -4.5 5.01e-02 5.58e-02h  1
   3  1.2592432e+03 5.99e-01 1.03e+01  -1.0 1.25e+00  -5.0 3.45e-01 6.24e-01h  1
   4  1.4145539e+03 4.41e-01 1.08e+01  -1.0 1.81e+00  -5.4 1.74e-01 2.94e-01h  1
   5  1.6734069e+03 1.72e-01 9.80e+00  -1.0 1.41e+00  -5.9 5.53e-01 6.88e-01h  1
   6  1.7808734e+03 7.82e-03 1.71e+01  -1.0 5.80e-01  -6.4 1.00e+00 8.87e-01h  1
   7  1.7951807e+03 7.71e-05 1.42e+01  -1.0 9.41e-02  -6.9 1.00e+00 9.90e-01h  1
   8  1.7953735e+03 4.82e-14 2.55e-05  -1.0 3.31e-03  -7.3 1.00e+00 1.00e+00h  1
   9  1.7925564e+03 4.02e-03 1.81e+04  -3.8 1.03e-01  -7.8 8.27e-01 9.68e-01f  1
iter    objective    inf_pr   inf_du lg(mu)  ||d||  lg(rg) alpha_du alpha_pr  ls
  10  1.7894974e+03 3.60e-03 5.49e+03  -3.8 1.19e-01  -8.3 7.28e-01 8.68e-01f  1
  11  1.7891306e+03 5.88e-04 1.62e+03  -3.8 1.12e-01  -8.8 7.22e-01 8.84e-01h  1
  12  1.7891128e+03 1.33e-13 3.75e-03  -3.8 3.20e-02  -9.2 1.00e+00 1.00e+00h  1
  13  1.7891046e+03 6.29e-14 3.27e-05  -3.8 9.14e-03  -9.7 1.00e+00 1.00e+00h  1
  14  1.7890808e+03 1.75e-14 5.80e+01  -5.7 6.04e-03 -10.2 9.96e-01 1.00e+00h  1
  15  1.7890807e+03 3.05e-15 1.58e-06  -5.7 1.04e-04 -10.7 1.00e+00 1.00e+00h  1
  16  1.7890804e+03 1.37e-14 1.03e+01  -8.6 7.23e-05 -11.2 1.00e+00 9.44e-01h  1
  17  1.7890804e+03 6.75e-15 3.05e+00  -8.6 4.04e-06 -11.6 1.00e+00 8.28e-01f  1
In iteration 17, 1 Slack too small, adjusting variable bound
  18  1.7890804e+03 4.96e-14 1.88e+00  -8.6 8.46e-06 -12.1 1.00e+00 5.68e-01f  1
  19  1.7890804e+03 3.29e-14 2.89e-08  -8.6 9.18e-06 -12.6 1.00e+00 1.00e+00h  1
iter    objective    inf_pr   inf_du lg(mu)  ||d||  lg(rg) alpha_du alpha_pr  ls
  20  1.7890804e+03 1.32e-14 3.59e-09  -8.6 4.92e-06 -13.1 1.00e+00 1.00e+00h  1

Number of Iterations....: 20

                                   (scaled)                 (unscaled)
Objective...............:   1.7890803649598658e+02    1.7890803649598656e+03
Dual infeasibility......:   3.5873953746311213e-09    3.5873953746311210e-08
Constraint violation....:   3.6516362850180785e-15    1.3218592886943270e-14
Complementarity.........:   2.7693193592900033e-09    2.7693193592900032e-08
Overall NLP error.......:   3.5873953746311213e-09    3.5873953746311210e-08


Number of objective function evaluations             = 21
Number of objective gradient evaluations             = 21
Number of equality constraint evaluations            = 21
Number of inequality constraint evaluations          = 21
Number of equality constraint Jacobian evaluations   = 21
Number of inequality constraint Jacobian evaluations = 21
Number of Lagrangian Hessian evaluations             = 20
Total CPU secs in IPOPT (w/o function evaluations)   =      0.285
Total CPU secs in NLP function evaluations           =      0.211

EXIT: Optimal Solution Found.
Time to Solution........:1.295078992843628
